language ESSENCE' 1.0
$ Richard Kaye: How Complicated is Minesweeper?
$ http://web.mat.bham.ac.uk/R.W.Kaye/minesw/ASE2003.pdf
$
$ A Wire,page 33
$ (2 solutions)
letting r be 5
letting c be 14
letting game be [
    [-1,0,0,0,0,0,0,0,0,0,0,0,0,-1],
    [-1,1,1,1,1,1,1,1,1,1,1,1,1,-1],
    [-1,-1,1,-1,-1,1,-1,-1,1,-1,-1,1,-1,-1],
    [-1,1,1,1,1,1,1,1,1,1,1,1,1,-1],
    [-1,0,0,0,0,0,0,0,0,0,0,0,0,-1]
  ]

